db/inputs/9884280837661791310533706246391444.smt2
(set-logic QF_FP)
(declare-const x0 (_ FloatingPoint 11 53))
(declare-const x1 (_ FloatingPoint 11 53))
(declare-const x2 (_ FloatingPoint 11 53))
(declare-const x3 (_ FloatingPoint 11 53))
(declare-const x4 (_ FloatingPoint 11 53))
(declare-const x5 (_ FloatingPoint 11 53))
(declare-const x6 (_ FloatingPoint 11 53))
(declare-const x7 (_ FloatingPoint 11 53))
(assert (fp.lt (fp.mul RNE x1 x7) (fp.sub RNE x6 x3)))
(assert (fp.eq (fp.sub RNE x6 x0) (fp.div RNE x7 x6)))
(assert (fp.geq (fp.add RNE x3 x5) (fp.mul RNE x7 x4)))
(assert (fp.geq (fp.mul RNE x3 x1) (fp.add RNE x7 x5)))
(assert (fp.geq (fp.sub RNE x3 x7) (fp.neg x4)))
(assert (fp.geq (fp.sub RNE x4 x7) (fp.neg x6)))
(assert (fp.gt (fp.div RNE x1 x7) (fp.add RNE x1 x3)))
(assert (fp.eq (fp.sub RNE x0 x6) (fp.add RNE x5 x3)))
(assert (fp.leq (fp.div RNE x7 x0) (fp.div RNE x1 x6)))
(assert (fp.geq (fp.neg x1) (fp.neg x2)))
(check-sat)
