db/data/9884280837661791310533706246391444.z3.out
-------------------
2500.096550729
